11
-1 67 34 69 24 78 58 62 64 5 45
81 -1 61 91 95 42 27 36 91 4 2
53 92 -1 21 16 18 95 47 26 71 38
69 12 67 -1 35 94 3 11 22 33 73
64 41 11 53 -1 47 44 62 57 37 59
23 41 29 78 16 -1 90 42 88 6 40
42 64 48 46 5 90 -1 70 50 6 1
93 48 29 23 84 54 56 -1 66 76 31
8 44 39 26 23 37 38 18 -1 29 41
33 15 39 58 4 30 77 6 73 -1 21
45 24 72 70 29 77 73 97 12 86 -1